networks/zoo_122_3660/zoo_122_3660-lower.txt
Number of groups: 61
Flow 1: {1 36 0} {36 15 0} {56 5 0} {5 2 0} {2 63 0} 
Flow 1: {15 56 0} Flow 2: {36 3 0} {3 64 0} 
Flow 3: {38 4 0} {4 65 0} 
Flow 3: {36 38 0} Flow 4: {5 66 0} 
Flow 5: {56 6 0} {6 67 0} 
Flow 6: {56 7 0} {7 68 0} 
Flow 7: {5 8 0} {8 69 0} 
Flow 8: {23 9 0} {9 70 0} 
Flow 8: {15 50 0} {50 19 0} {19 22 0} {22 23 0} Flow 9: {59 10 0} {10 71 0} 
Flow 9: {38 59 0} Flow 10: {56 11 0} {11 72 0} 
Flow 11: {56 12 0} {12 73 0} 
Flow 12: {22 21 0} {21 13 0} {13 74 0} 
Flow 13: {30 14 0} {14 75 0} 
Flow 13: {15 30 0} Flow 14: {15 76 0} 
Flow 15: {36 16 0} {16 77 0} 
Flow 16: {36 35 0} {35 17 0} {17 78 0} 
Flow 17: {35 18 0} {18 79 0} 
Flow 18: {19 80 0} 
Flow 19: {22 20 0} {20 81 0} 
Flow 20: {21 82 0} 
Flow 21: {22 83 0} 
Flow 22: {23 84 0} 
Flow 23: {22 24 0} {24 85 0} 
Flow 24: {38 25 0} {25 86 0} 
Flow 25: {38 26 0} {26 87 0} 
Flow 26: {15 27 0} {27 88 0} 
Flow 27: {56 28 0} {28 89 0} 
Flow 28: {56 29 0} {29 90 0} 
Flow 29: {30 91 0} 
Flow 30: {30 31 0} {31 92 0} 
Flow 31: {35 32 0} {32 93 0} 
Flow 32: {50 33 0} {33 94 0} 
Flow 33: {32 34 0} {34 95 0} 
Flow 34: {35 96 0} 
Flow 35: {36 97 0} 
Flow 36: {35 37 0} {37 98 0} 
Flow 37: {38 99 0} 
Flow 38: {38 39 0} {39 100 0} 
Flow 39: {38 40 0} {40 101 0} 
Flow 40: {38 41 0} {41 102 0} 
Flow 41: {19 42 0} {42 103 0} 
Flow 42: {50 43 0} {43 104 0} 
Flow 43: {19 44 0} {44 105 0} 
Flow 44: {56 45 0} {45 106 0} 
Flow 45: {7 46 0} {46 107 0} 
Flow 46: {15 47 0} {47 108 0} 
Flow 47: {50 48 0} {48 109 0} 
Flow 48: {50 49 0} {49 110 0} 
Flow 49: {50 111 0} 
Flow 50: {50 51 0} {51 112 0} 
Flow 51: {38 52 0} {52 113 0} 
Flow 52: {36 53 0} {53 114 0} 
Flow 53: {16 54 0} {54 115 0} 
Flow 54: {41 55 0} {55 116 0} 
Flow 55: {56 117 0} 
Flow 56: {36 57 0} {57 118 0} 
Flow 57: {15 58 0} {58 119 0} 
Flow 58: {59 120 0} 
Flow 59: {56 60 0} {60 121 0} 
Flow 60: {47 61 0} {61 122 0} 
Flow 61: {36 1 0} {1 62 0} 
Flow 61: {2 5 0} {5 56 0} {56 15 0} {15 36 0} Flow 63: {56 38 0} Flow 68: {5 11 0} {11 22 0} Flow 75: {38 16 0} Flow 76: {15 35 0} Flow 78: {56 19 0} Flow 96: {38 37 0} Flow 104: {11 45 0} Flow 105: {11 46 0} Flow 116: {38 57 0} Flow 121: {3 36 0} Flow 181: {4 38 0} {38 36 0} Flow 182: {38 56 0} Flow 197: {57 18 0} Flow 239: {40 60 0} Flow 301: {6 56 0} Flow 361: {7 56 0} Flow 368: {46 11 0} Flow 421: {8 5 0} Flow 481: {9 23 0} {23 22 0} {22 11 0} {11 56 0} Flow 482: {11 5 0} Flow 487: {46 7 0} Flow 498: {22 19 0} Flow 512: {19 50 0} Flow 541: {10 59 0} {59 38 0} Flow 661: {12 56 0} Flow 721: {13 21 0} {21 22 0} Flow 781: {14 30 0} {30 15 0} Flow 819: {30 60 0} {60 40 0} Flow 820: {60 41 0} Flow 901: {16 36 0} Flow 902: {16 38 0} Flow 961: {17 35 0} {35 36 0} Flow 962: {35 15 0} Flow 998: {18 57 0} {57 39 0} Flow 1021: {57 36 0} Flow 1022: {57 38 0} Flow 1034: {18 35 0} Flow 1081: {19 56 0} Flow 1141: {20 22 0} Flow 1381: {24 22 0} Flow 1441: {25 38 0} Flow 1501: {26 38 0} Flow 1561: {27 15 0} Flow 1621: {28 56 0} Flow 1681: {29 56 0} Flow 1801: {31 30 0} Flow 1861: {32 35 0} Flow 1921: {33 50 0} {50 15 0} Flow 1981: {34 32 0} Flow 2161: {37 35 0} Flow 2162: {37 38 0} Flow 2281: {39 38 0} Flow 2298: {39 57 0} Flow 2341: {40 38 0} Flow 2354: {60 30 0} Flow 2401: {41 38 0} Flow 2414: {41 60 0} Flow 2461: {42 19 0} Flow 2521: {43 50 0} Flow 2581: {44 19 0} Flow 2641: {45 56 0} Flow 2642: {45 11 0} Flow 2761: {47 15 0} Flow 2821: {48 50 0} Flow 2881: {49 50 0} Flow 3001: {51 50 0} Flow 3061: {52 38 0} Flow 3121: {53 36 0} Flow 3181: {54 16 0} Flow 3241: {55 41 0} Flow 3421: {58 15 0} Flow 3542: {60 56 0} Flow 3601: {61 47 0} Time taken running everything: 0 seconds
