networks/zoo_122_3660/zoo_122_3660-lower.sol
<?xml version = "1.0" encoding="UTF-8" standalone="yes"?>
<CPLEXSolution version="1.2">
 <header
   problemName="networks/zoo_122_3660/zoo_122_3660-lower.lp"
   solutionName="incumbent"
   solutionIndex="-1"
   objectiveValue="66"
   solutionTypeValue="3"
   solutionTypeString="primal"
   solutionStatusValue="101"
   solutionStatusString="integer optimal solution"
   solutionMethodString="mip"
   primalFeasible="1"
   dualFeasible="1"
   MIPNodes="0"
   MIPIterations="6664"
   writeLevel="3"/>
 <quality
   epInt="1.0000000000000001e-05"
   epRHS="9.9999999999999995e-07"
   maxIntInfeas="0"
   maxPrimalInfeas="0"
   maxX="1"
   maxSlack="1"/>
 <variables>
  <variable name="Y(56,57)" index="6766" value="1"/>
  <variable name="Y(105,46)" index="12733" value="1"/>
  <variable name="Y(177,58)" index="21529" value="1"/>
  <variable name="Y(213,34)" index="25897" value="1"/>
  <variable name="Y(239,40)" index="29075" value="1"/>
  <variable name="Y(247,8)" index="30019" value="1"/>
  <variable name="Y(321,22)" index="39061" value="1"/>
  <variable name="Y(370,11)" index="45028" value="1"/>
  <variable name="Y(438,19)" index="53332" value="1"/>
  <variable name="Y(500,21)" index="60898" value="1"/>
  <variable name="Y(591,52)" index="72031" value="1"/>
  <variable name="Y(644,45)" index="78490" value="1"/>
  <variable name="Y(715,56)" index="87163" value="1"/>
  <variable name="Y(763,44)" index="93007" value="1"/>
  <variable name="Y(806,27)" index="98236" value="1"/>
  <variable name="Y(886,47)" index="108016" value="1"/>
  <variable name="Y(916,17)" index="111646" value="1"/>
  <variable name="Y(997,38)" index="121549" value="1"/>
  <variable name="Y(1045,26)" index="127393" value="1"/>
  <variable name="Y(1121,42)" index="136681" value="1"/>
  <variable name="Y(1152,12)" index="140433" value="1"/>
  <variable name="Y(1213,13)" index="147876" value="1"/>
  <variable name="Y(1283,24)" index="156427" value="1"/>
  <variable name="Y(1329,9)" index="162024" value="1"/>
  <variable name="Y(1400,20)" index="170697" value="1"/>
  <variable name="Y(1496,38)" index="182427" value="1"/>
  <variable name="Y(1536,37)" index="187306" value="1"/>
  <variable name="Y(1561,1)" index="190320" value="1"/>
  <variable name="Y(1627,7)" index="198378" value="1"/>
  <variable name="Y(1682,2)" index="205083" value="1"/>
  <variable name="Y(1779,40)" index="216955" value="1"/>
  <variable name="Y(1830,30)" index="223167" value="1"/>
  <variable name="Y(1968,49)" index="240022" value="1"/>
  <variable name="Y(2016,35)" index="245864" value="1"/>
  <variable name="Y(2078,57)" index="253450" value="1"/>
  <variable name="Y(2116,16)" index="258045" value="1"/>
  <variable name="Y(2188,28)" index="266841" value="1"/>
  <variable name="Y(2193,33)" index="267456" value="1"/>
  <variable name="Y(2245,25)" index="273792" value="1"/>
  <variable name="Y(2298,18)" index="280251" value="1"/>
  <variable name="Y(2333,54)" index="284557" value="1"/>
  <variable name="Y(2380,41)" index="290278" value="1"/>
  <variable name="Y(2431,31)" index="296490" value="1"/>
  <variable name="Y(2519,60)" index="307255" value="1"/>
  <variable name="Y(2543,23)" index="310146" value="1"/>
  <variable name="Y(2623,43)" index="319926" value="1"/>
  <variable name="Y(2645,5)" index="322572" value="1"/>
  <variable name="Y(2698,59)" index="329092" value="1"/>
  <variable name="Y(2714,14)" index="330999" value="1"/>
  <variable name="Y(2820,61)" index="343978" value="1"/>
  <variable name="Y(2855,35)" index="348222" value="1"/>
  <variable name="Y(2928,48)" index="357141" value="1"/>
  <variable name="Y(2990,51)" index="364708" value="1"/>
  <variable name="Y(3050,50)" index="372027" value="1"/>
  <variable name="Y(3112,53)" index="379594" value="1"/>
  <variable name="Y(3156,36)" index="384945" value="1"/>
  <variable name="Y(3184,4)" index="388329" value="1"/>
  <variable name="Y(3279,39)" index="399954" value="1"/>
  <variable name="Y(3306,6)" index="403215" value="1"/>
  <variable name="Y(3363,3)" index="410166" value="1"/>
  <variable name="Y(3392,32)" index="413733" value="1"/>
  <variable name="Y(3435,15)" index="418962" value="1"/>
  <variable name="Y(3490,10)" index="425667" value="1"/>
  <variable name="Y(3569,29)" index="435324" value="1"/>
  <variable name="Y(3595,55)" index="438522" value="1"/>
  <variable name="Y(3645,56)" index="444623" value="1"/>
  <variable name="X(1,36,56)" index="446575" value="1"/>
  <variable name="X(1,62,1561)" index="451740" value="1"/>
  <variable name="X(2,5,105)" index="453944" value="1"/>
  <variable name="X(2,63,1682)" index="459181" value="1"/>
  <variable name="X(3,36,177)" index="461336" value="1"/>
  <variable name="X(3,64,3363)" index="468182" value="1"/>
  <variable name="X(4,38,239)" index="468718" value="1"/>
  <variable name="X(4,65,3184)" index="475323" value="1"/>
  <variable name="X(5,2,1682)" index="477481" value="1"/>
  <variable name="X(5,8,247)" index="479706" value="1"/>
  <variable name="X(5,11,105)" index="483224" value="1"/>
  <variable name="X(5,56,438)" index="487217" value="1"/>
  <variable name="X(5,66,2645)" index="493084" value="1"/>
  <variable name="X(6,56,321)" index="494420" value="1"/>
  <variable name="X(6,67,3306)" index="501065" value="1"/>
  <variable name="X(7,46,370)" index="501789" value="1"/>
  <variable name="X(7,56,2714)" index="507793" value="1"/>
  <variable name="X(7,68,1627)" index="510366" value="1"/>
  <variable name="X(8,5,438)" index="512837" value="1"/>
  <variable name="X(8,69,247)" index="516306" value="1"/>
  <variable name="X(9,23,500)" index="520219" value="1"/>
  <variable name="X(9,70,1329)" index="524708" value="1"/>
  <variable name="X(10,59,591)" index="527630" value="1"/>
  <variable name="X(10,71,3490)" index="534189" value="1"/>
  <variable name="X(11,5,2645)" index="537004" value="1"/>
  <variable name="X(11,22,321)" index="538340" value="1"/>
  <variable name="X(11,45,644)" index="542323" value="1"/>
  <variable name="X(11,46,105)" index="545444" value="1"/>
  <variable name="X(11,56,1152)" index="550151" value="1"/>
  <variable name="X(11,72,370)" index="553029" value="1"/>
  <variable name="X(12,56,715)" index="557034" value="1"/>
  <variable name="X(12,73,1152)" index="561131" value="1"/>
  <variable name="X(13,21,763)" index="564402" value="1"/>
  <variable name="X(13,74,1213)" index="568512" value="1"/>
  <variable name="X(14,30,806)" index="571765" value="1"/>
  <variable name="X(14,75,2714)" index="577333" value="1"/>
  <variable name="X(15,27,806)" index="579085" value="1"/>
  <variable name="X(15,30,2714)" index="584653" value="1"/>
  <variable name="X(15,35,2855)" index="588454" value="1"/>
  <variable name="X(15,36,1561)" index="590820" value="1"/>
  <variable name="X(15,47,886)" index="593805" value="1"/>
  <variable name="X(15,50,2193)" index="598772" value="1"/>
  <variable name="X(15,56,3645)" index="603884" value="1"/>
  <variable name="X(15,58,177)" index="604076" value="1"/>
  <variable name="X(15,76,3435)" index="610994" value="1"/>
  <variable name="X(16,36,916)" index="612135" value="1"/>
  <variable name="X(16,38,3184)" index="618063" value="1"/>
  <variable name="X(16,54,2333)" index="620872" value="1"/>
  <variable name="X(16,77,2116)" index="624315" value="1"/>
  <variable name="X(17,35,997)" index="626856" value="1"/>
  <variable name="X(17,78,916)" index="630435" value="1"/>
  <variable name="X(18,35,3392)" index="636571" value="1"/>
  <variable name="X(18,57,2078)" index="638917" value="1"/>
  <variable name="X(18,79,2298)" index="642797" value="1"/>
  <variable name="X(19,22,2543)" index="646702" value="1"/>
  <variable name="X(19,42,1121)" index="648940" value="1"/>
  <variable name="X(19,44,763)" index="652242" value="1"/>
  <variable name="X(19,50,2623)" index="657762" value="1"/>
  <variable name="X(19,56,2519)" index="661318" value="1"/>
  <variable name="X(19,80,438)" index="662897" value="1"/>
  <variable name="X(20,22,1152)" index="667271" value="1"/>
  <variable name="X(20,81,1400)" index="671179" value="1"/>
  <variable name="X(21,13,1213)" index="674652" value="1"/>
  <variable name="X(21,22,763)" index="677862" value="1"/>
  <variable name="X(21,82,500)" index="681259" value="1"/>
  <variable name="X(22,11,1152)" index="685571" value="1"/>
  <variable name="X(22,19,763)" index="688842" value="1"/>
  <variable name="X(22,20,1400)" index="693139" value="1"/>
  <variable name="X(22,21,500)" index="695899" value="1"/>
  <variable name="X(22,23,2543)" index="701602" value="1"/>
  <variable name="X(22,24,1283)" index="704002" value="1"/>
  <variable name="X(22,83,321)" index="706700" value="1"/>
  <variable name="X(23,9,1329)" index="711368" value="1"/>
  <variable name="X(23,22,500)" index="714199" value="1"/>
  <variable name="X(23,84,2543)" index="719902" value="1"/>
  <variable name="X(24,22,1400)" index="722419" value="1"/>
  <variable name="X(24,85,1283)" index="725962" value="1"/>
  <variable name="X(25,38,1496)" index="729835" value="1"/>
  <variable name="X(25,86,2245)" index="734244" value="1"/>
  <variable name="X(26,38,1536)" index="737195" value="1"/>
  <variable name="X(26,87,1045)" index="740364" value="1"/>
  <variable name="X(27,15,1561)" index="744540" value="1"/>
  <variable name="X(27,88,806)" index="747445" value="1"/>
  <variable name="X(28,56,1627)" index="751926" value="1"/>
  <variable name="X(28,89,2188)" index="756147" value="1"/>
  <variable name="X(29,56,1682)" index="759301" value="1"/>
  <variable name="X(29,90,3569)" index="764848" value="1"/>
  <variable name="X(30,14,2714)" index="767653" value="1"/>
  <variable name="X(30,15,806)" index="769405" value="1"/>
  <variable name="X(30,31,2431)" index="774690" value="1"/>
  <variable name="X(30,60,1779)" index="777698" value="1"/>
  <variable name="X(30,91,1830)" index="781409" value="1"/>
  <variable name="X(31,30,1830)" index="785069" value="1"/>
  <variable name="X(31,92,2431)" index="789330" value="1"/>
  <variable name="X(32,34,213)" index="790772" value="1"/>
  <variable name="X(32,35,2016)" index="796235" value="1"/>
  <variable name="X(32,93,3392)" index="801271" value="1"/>
  <variable name="X(33,50,1968)" index="803507" value="1"/>
  <variable name="X(33,94,2193)" index="807392" value="1"/>
  <variable name="X(34,32,2016)" index="810875" value="1"/>
  <variable name="X(34,95,213)" index="812732" value="1"/>
  <variable name="X(35,15,2193)" index="818372" value="1"/>
  <variable name="X(35,17,916)" index="820755" value="1"/>
  <variable name="X(35,18,2078)" index="825577" value="1"/>
  <variable name="X(35,32,3392)" index="830551" value="1"/>
  <variable name="X(35,36,997)" index="831816" value="1"/>
  <variable name="X(35,37,2016)" index="836495" value="1"/>
  <variable name="X(35,96,2855)" index="840994" value="1"/>
  <variable name="X(36,1,1561)" index="843360" value="1"/>
  <variable name="X(36,3,3363)" index="848822" value="1"/>
  <variable name="X(36,15,177)" index="849296" value="1"/>
  <variable name="X(36,16,2116)" index="854895" value="1"/>
  <variable name="X(36,35,916)" index="857355" value="1"/>
  <variable name="X(36,38,997)" index="861096" value="1"/>
  <variable name="X(36,53,3112)" index="866871" value="1"/>
  <variable name="X(36,57,56)" index="867475" value="1"/>
  <variable name="X(36,97,3156)" index="874235" value="1"/>
  <variable name="X(37,35,2193)" index="876932" value="1"/>
  <variable name="X(37,38,2188)" index="880587" value="1"/>
  <variable name="X(37,98,1536)" index="883595" value="1"/>
  <variable name="X(38,4,3184)" index="888903" value="1"/>
  <variable name="X(38,16,2333)" index="891712" value="1"/>
  <variable name="X(38,25,2245)" index="895284" value="1"/>
  <variable name="X(38,26,1045)" index="897744" value="1"/>
  <variable name="X(38,36,3112)" index="903471" value="1"/>
  <variable name="X(38,37,1536)" index="905555" value="1"/>
  <variable name="X(38,39,3279)" index="910958" value="1"/>
  <variable name="X(38,40,239)" index="911578" value="1"/>
  <variable name="X(38,41,2380)" index="917379" value="1"/>
  <variable name="X(38,52,591)" index="919250" value="1"/>
  <variable name="X(38,56,2188)" index="924507" value="1"/>
  <variable name="X(38,57,1496)" index="927475" value="1"/>
  <variable name="X(38,59,2698)" index="932337" value="1"/>
  <variable name="X(38,99,997)" index="934296" value="1"/>
  <variable name="X(39,38,2333)" index="939292" value="1"/>
  <variable name="X(39,57,2298)" index="942917" value="1"/>
  <variable name="X(39,100,3279)" index="947558" value="1"/>
  <variable name="X(40,38,2380)" index="950319" value="1"/>
  <variable name="X(40,60,239)" index="951838" value="1"/>
  <variable name="X(40,101,1779)" index="957038" value="1"/>
  <variable name="X(41,38,3279)" index="962198" value="1"/>
  <variable name="X(41,55,3595)" index="966174" value="1"/>
  <variable name="X(41,60,2431)" index="968670" value="1"/>
  <variable name="X(41,102,2380)" index="972279" value="1"/>
  <variable name="X(42,19,2519)" index="976078" value="1"/>
  <variable name="X(42,103,1121)" index="978340" value="1"/>
  <variable name="X(43,50,2543)" index="983422" value="1"/>
  <variable name="X(43,104,2623)" index="987162" value="1"/>
  <variable name="X(44,19,2623)" index="990822" value="1"/>
  <variable name="X(44,105,763)" index="992622" value="1"/>
  <variable name="X(45,11,2645)" index="998164" value="1"/>
  <variable name="X(45,56,2698)" index="1001877" value="1"/>
  <variable name="X(45,106,644)" index="1003483" value="1"/>
  <variable name="X(46,7,2714)" index="1009213" value="1"/>
  <variable name="X(46,11,370)" index="1010529" value="1"/>
  <variable name="X(46,107,105)" index="1013924" value="1"/>
  <variable name="X(47,15,3645)" index="1021124" value="1"/>
  <variable name="X(47,61,2820)" index="1023959" value="1"/>
  <variable name="X(47,108,886)" index="1025685" value="1"/>
  <variable name="X(48,50,2855)" index="1031314" value="1"/>
  <variable name="X(48,109,2928)" index="1035047" value="1"/>
  <variable name="X(49,50,2928)" index="1038707" value="1"/>
  <variable name="X(49,110,1968)" index="1041407" value="1"/>
  <variable name="X(50,15,2855)" index="1045954" value="1"/>
  <variable name="X(50,19,2543)" index="1049302" value="1"/>
  <variable name="X(50,33,2193)" index="1052612" value="1"/>
  <variable name="X(50,43,2623)" index="1056702" value="1"/>
  <variable name="X(50,48,2928)" index="1060667" value="1"/>
  <variable name="X(50,49,1968)" index="1063367" value="1"/>
  <variable name="X(50,51,2990)" index="1068049" value="1"/>
  <variable name="X(50,111,3050)" index="1071769" value="1"/>
  <variable name="X(51,50,3050)" index="1075429" value="1"/>
  <variable name="X(51,112,2990)" index="1079029" value="1"/>
  <variable name="X(52,38,3112)" index="1082811" value="1"/>
  <variable name="X(52,113,591)" index="1083950" value="1"/>
  <variable name="X(53,36,3156)" index="1090175" value="1"/>
  <variable name="X(53,114,3112)" index="1093791" value="1"/>
  <variable name="X(54,16,3184)" index="1097523" value="1"/>
  <variable name="X(54,115,2333)" index="1100332" value="1"/>
  <variable name="X(55,41,3279)" index="1104938" value="1"/>
  <variable name="X(55,116,3595)" index="1108914" value="1"/>
  <variable name="X(56,5,1682)" index="1110661" value="1"/>
  <variable name="X(56,6,3306)" index="1115945" value="1"/>
  <variable name="X(56,7,1627)" index="1117926" value="1"/>
  <variable name="X(56,11,321)" index="1120280" value="1"/>
  <variable name="X(56,12,1152)" index="1124771" value="1"/>
  <variable name="X(56,15,2714)" index="1129993" value="1"/>
  <variable name="X(56,19,438)" index="1131377" value="1"/>
  <variable name="X(56,28,2188)" index="1136787" value="1"/>
  <variable name="X(56,29,3569)" index="1141828" value="1"/>
  <variable name="X(56,38,2698)" index="1144617" value="1"/>
  <variable name="X(56,45,3645)" index="1149224" value="1"/>
  <variable name="X(56,60,2519)" index="1151758" value="1"/>
  <variable name="X(56,117,715)" index="1153614" value="1"/>
  <variable name="X(57,18,2298)" index="1158857" value="1"/>
  <variable name="X(57,36,3363)" index="1163582" value="1"/>
  <variable name="X(57,38,1045)" index="1164924" value="1"/>
  <variable name="X(57,39,2078)" index="1169617" value="1"/>
  <variable name="X(57,118,56)" index="1171255" value="1"/>
  <variable name="X(58,15,3435)" index="1178294" value="1"/>
  <variable name="X(58,119,177)" index="1178696" value="1"/>
  <variable name="X(59,10,3490)" index="1185669" value="1"/>
  <variable name="X(59,38,591)" index="1186430" value="1"/>
  <variable name="X(59,120,2698)" index="1192197" value="1"/>
  <variable name="X(60,30,2431)" index="1195590" value="1"/>
  <variable name="X(60,40,1779)" index="1198598" value="1"/>
  <variable name="X(60,41,3595)" index="1204074" value="1"/>
  <variable name="X(60,56,3569)" index="1207708" value="1"/>
  <variable name="X(60,121,2519)" index="1210318" value="1"/>
  <variable name="X(61,47,3645)" index="1215104" value="1"/>
  <variable name="X(61,122,2820)" index="1217939" value="1"/>
 </variables>
</CPLEXSolution>
